SystemName         H irradiaiton on graphene 
#SystemType         Bulk
SystemLabel        gra_h
NumberOfAtoms      33
NumberOfSpecies    2

%block ChemicalSpeciesLabel
 1    6   C      # Species index, atomic number, species label
 2    1   H
%endblock ChemicalSpeciesLabel

LatticeConstant   1.0  Ang

MD.UseSaveXV  T

MaxSCFIterations       100
DM.MixingWeight        0.2
DM.NumberPulay           3
DM.Tolerance         1.d-4
MeshCutoff           100.0  Ry 
SolutionMethod       Diagon
Diag.DivideAndConquer false
SpinPolarized
TDED.WF.Initialize

PAO.BasisSize DZP

xc.functional         GGA           # Exchange-correlation functional
xc.authors            PBE           # Exchange-correlation version

%block kgrid_Monkhorst_Pack
5 0 0 0.0
0 5 0 0.0
0 0 1 0.0
%endblock kgrid_Monkhorst_Pack

%block LatticeVectors
 9.83804893     0.00000000     0.00000000
-4.91902447     8.52000030     0.00000000
 0.00000000     0.00000000    30.00000000
%endblock LatticeVectors

AtomicCoordinatesFormat Ang

%block AtomicCoordinatesAndAtomicSpecies
3.689268112         7.809999943        15.000000000  1
4.919023991         7.100000858        15.000000000  1
7.378537178         1.420000076        15.000000000  1
8.608292580         0.710000098        15.000000000  1
6.148781300         3.550000191        15.000000000  1
7.378536701         2.840000153        15.000000000  1
4.919023991         5.680000305        15.000000000  1
6.148780346         4.970000267        15.000000000  1
-3.689268112         7.809999943        15.000000000  1
-2.459512234         7.100000858        15.000000000  1
-0.000000044         1.420000076        15.000000000  1
1.229756117         0.710000098        15.000000000  1
-1.229755998         3.550000191        15.000000000  1
-0.000000089         2.840000153        15.000000000  1
-2.459512234         5.680000305        15.000000000  1
-1.229755998         4.970000267        15.000000000  1
-1.229755759         7.809999943        15.000000000  1
-0.000000354         7.100000858        15.000000000  1
2.459512472         1.420000076        15.000000000  1
3.689268112         0.710000098        15.000000000  1
1.229756355         3.550000191        15.000000000  1
2.459511995         2.840000153        15.000000000  1
-0.000000177         5.680000305        15.000000000  1
1.229755998         4.970000267        15.000000000  1
1.229755998         7.809999943        15.000000000  1
2.459512949         7.100000858        15.000000000  1
4.919023991         1.420000076        15.000000000  1
6.148780823         0.710000038        15.000000000  1
3.689268112         3.550000191        15.000000000  1
4.919024944         2.840000153        15.000000000  1
2.459511757         5.680000305        15.000000000  1
3.689268827         4.970000267        15.000000000  1
2.459700000         3.550000191         20.000000000 2
%endblock AtomicCoordinatesAndAtomicSpecies
